NAME : Bre-11
TYPE : CVRP
DIMENSION : 101
EDGE_WEIGHT_TYPE : EUC_2D 
CAPACITY : 100
NODE_COORD_SECTION
1 50 75
2 5 28
3 15 28
4 25 28
5 35 28
6 45 28
7 55 28
8 65 28
9 75 28
10 85 28
11 95 28
12 5 33
13 15 33
14 25 33
15 35 33
16 45 33
17 55 33
18 65 33
19 75 33
20 85 33
21 95 33
22 5 38
23 15 38
24 25 38
25 35 38
26 45 38
27 55 38
28 65 38
29 75 38
30 85 38
31 95 38
32 5 43
33 15 43
34 25 43
35 35 43
36 45 43
37 55 43
38 65 43
39 75 43
40 85 43
41 95 43
42 5 48
43 15 48
44 25 48
45 35 48
46 45 48
47 55 48
48 65 48
49 75 48
50 85 48
51 95 48
52 5 53
53 15 53
54 25 53
55 35 53
56 45 53
57 55 53
58 65 53
59 75 53
60 85 53
61 95 53
62 5 58
63 15 58
64 25 58
65 35 58
66 45 58
67 55 58
68 65 58
69 75 58
70 85 58
71 95 58
72 5 63
73 15 63
74 25 63
75 35 63
76 45 63
77 55 63
78 65 63
79 75 63
80 85 63
81 95 63
82 5 68
83 15 68
84 25 68
85 35 68
86 45 68
87 55 68
88 65 68
89 75 68
90 85 68
91 95 68
92 5 73
93 15 73
94 25 73
95 35 73
96 45 73
97 55 73
98 65 73
99 75 73
100 85 73
101 95 73
DEMAND_SECTION
1 0
2 4
3 8
4 12
5 16
6 4
7 8
8 12
9 16
10 4
11 8
12 12
13 16
14 4
15 8
16 12
17 16
18 4
19 8
20 12
21 16
22 4
23 8
24 12
25 16
26 4
27 8
28 12
29 16
30 4
31 8
32 12
33 16
34 4
35 8
36 12
37 16
38 4
39 8
40 12
41 16
42 4
43 8
44 12
45 16
46 4
47 8
48 12
49 16
50 4
51 8
52 12
53 16
54 4
55 8
56 12
57 16
58 4
59 8
60 12
61 16
62 4
63 8
64 12
65 16
66 4
67 8
68 12
69 16
70 4
71 8
72 12
73 16
74 4
75 8
76 12
77 16
78 4
79 8
80 12
81 16
82 4
83 8
84 12
85 16
86 4
87 8
88 12
89 16
90 4
91 8
92 12
93 16
94 4
95 8
96 12
97 16
98 4
99 8
100 12
101 16
DEPOT_SECTION
1 
-1
EOF
